157	32	4	59	
10	10	10	10

0	0	0	0	0	0	16	1	3	6	7	10	11	12	13	14	15	25	26	27	28	29	30
1	0	1	1	1	1	2	18	2
2	1	4	5	0	9	3	23	22	4
3	3	4	0	6	4	3	20	19	5
4	0	5	4	8	4	3	19	16	8
5	4	4	0	3	8	3	21	18	16
6	0	4	6	2	4	2	18	9
7	6	7	0	6	2	2	18	9
8	4	3	4	0	1	1	9
9	0	7	5	2	2	1	17
10	4	0	2	3	3	1	24
11	5	5	6	0	8	1	20
12	3	3	0	4	2	1	16
13	4	0	9	2	8	1	16
14	0	4	4	6	6	1	16
15	0	3	5	2	1	1	16
16	6	0	2	5	10	1	31
17	3	3	7	0	2	1	31
18	5	5	0	4	9	1	31
19	0	2	3	4	7	1	31
20	5	3	0	5	4	1	31
21	0	5	3	3	5	1	31
22	6	0	4	4	4	1	31
23	0	5	2	4	10	1	31
24	3	1	4	0	9	1	31
25	2	4	2	0	10	1	31
26	0	4	4	5	5	1	31
27	0	4	4	6	2	1	31
28	3	5	3	0	7	1	31
29	5	0	4	4	5	1	31
30	0	5	3	3	5	1	31
31	0	0	0	0	0	0
